p cnf 19 30
2 -18 -3 0
2 18 -6 7 0
-2 18 -7 0
-2 -18 3 0
-2 18 6 0
3 -4 5 0
-3 4 0
-3 -5 0
-4 12 16 17 0
-4 13 -16 17 0
4 -17 0
4 -13 -16 0
4 -12 16 0
5 14 16 -17 0
5 15 -16 -17 0
-5 17 0
-5 -15 -16 0
-5 -14 16 0
-6 8 16 17 0
-6 9 -16 17 0
6 -17 0
6 -9 -16 0
6 -8 16 0
7 10 16 -17 0
7 11 -16 -17 0
-7 17 0
-7 -11 -16 0
-7 -10 16 0
-19 0
2 0

